results_rootrelaxation/bin012_070_000.srr.sol
solution status: optimal solution found
objective value:                     8.85714285714286
_var746_                            0.571428571428571 	(obj:1)
_var751_                            0.285714285714286 	(obj:0)
_var759_                            0.142857142857143 	(obj:0)
_var767_                            0.285714285714286 	(obj:3)
_var772_                            0.142857142857142 	(obj:0)
_var777_                            0.714285714285714 	(obj:0)
_var797_                            0.142857142857144 	(obj:1)
_var802_                            0.428571428571428 	(obj:0)
_var806_                            0.285714285714286 	(obj:0)
_var814_                            0.428571428571429 	(obj:1)
_var837_                            0.142857142857144 	(obj:2)
_var838_                            0.142857142857142 	(obj:1)
_var852_                            0.285714285714285 	(obj:0)
_var856_                            0.285714285714286 	(obj:1)
_var859_                            0.142857142857144 	(obj:1)
_var863_                            0.142857142857143 	(obj:0)
_var864_                            0.428571428571429 	(obj:1)
_var866_                            0.571428571428571 	(obj:2)
_var867_                            0.142857142857143 	(obj:1)
_var868_                            0.142857142857142 	(obj:0)
_var872_                            0.142857142857142 	(obj:1)
_var875_                            0.142857142857143 	(obj:2)
_var879_                            0.285714285714286 	(obj:0)
_var880_                            0.285714285714286 	(obj:0)
_var886_                            0.428571428571429 	(obj:1)
_var889_                            0.142857142857143 	(obj:0)
_var891_                            0.428571428571428 	(obj:1)
_var895_                            0.142857142857143 	(obj:1)
_var900_                            0.142857142857143 	(obj:1)
_var903_                            0.285714285714286 	(obj:1)
_var904_                            0.285714285714286 	(obj:2)
_var905_                            0.285714285714286 	(obj:0)
_var913_                            0.285714285714286 	(obj:0)
_var915_                            0.428571428571429 	(obj:0)
_var916_                            0.285714285714286 	(obj:1)
_var921_                            0.285714285714285 	(obj:1)
_var922_                            0.285714285714286 	(obj:1)
_var928_                            0.142857142857142 	(obj:2)
_var929_                            0.142857142857144 	(obj:1)
_var931_                            0.142857142857142 	(obj:3)
_var942_                            0.142857142857142 	(obj:1)
