results_rootrelaxation/bin012_070_000.srr.log
SCIP version 8.0.3.5 [precision: 8 byte] [memory: block] [mode: optimized] [LP solver: Soplex 6.0.1.3] [GitHash: 438792519e]
Copyright (c) 2002-2023 Zuse Institute Berlin (ZIB)

External libraries: 
  Readline 8.1         GNU library for command line editing (gnu.org/s/readline)
  Soplex 6.0.1.3       Linear Programming Solver developed at Zuse Institute Berlin (soplex.zib.de) [GitHash: 713be0fe]
  CppAD 20180000.0     Algorithmic Differentiation of C++ algorithms developed by B. Bell (github.com/coin-or/CppAD)
  ZLIB 1.2.11          General purpose compression library by J. Gailly and M. Adler (zlib.net)
  bliss 0.77           Computing Graph Automorphism Groups by T. Junttila and P. Kaski (www.tcs.hut.fi/Software/bliss/)

user parameter file <scip.set> not found - using default parameters

srr/relaxation = TRUE

read problem <instances/bin012_070_000.srr>
============

Original problem: 
original problem has 0 variables (0 bin, 0 int, 0 impl, 0 cont) and 77 constraints

presolving:
presolving (1 rounds: 1 fast, 1 medium, 1 exhaustive):
 0 deleted vars, 0 deleted constraints, 0 added constraints, 0 tightened bounds, 0 added holes, 0 changed sides, 0 changed coefficients
 0 implications, 0 cliques
presolved problem has 0 variables (0 bin, 0 int, 0 impl, 0 cont) and 77 constraints
     77 constraints of type <linear>
Presolving Time: 0.00

 time | node  | left  |LP iter|LP it/n|mem/heur|mdpt |vars |cons |rows |cuts |sepa|confs|strbr|  dualbound   | primalbound  |  gap   | compl. 
  0.0s|     1 |     0 |     1 |     - |   710k |   0 |   1 |  77 |  77 |   0 |  0 |   0 |   0 |      --      |      --      |    Inf | unknown
r 0.0s|     1 |     0 |   866 |     - |simplero|   0 | 705 |  77 |  77 |   0 |  0 |   0 |   0 |      --      | 2.734900e+01 |    Inf | unknown
r 0.0s|     1 |     0 |   894 |     - |simplero|   0 | 716 |  77 |  77 |   0 |  0 |   0 |   0 |      --      | 2.666851e+01 |    Inf | unknown
r 0.1s|     1 |     0 |   932 |     - |simplero|   0 | 727 |  77 |  77 |   0 |  0 |   0 |   0 |      --      | 2.380292e+01 |    Inf | unknown
r 0.1s|     1 |     0 |   970 |     - |simplero|   0 | 738 |  77 |  77 |   0 |  0 |   0 |   0 |      --      | 2.193833e+01 |    Inf | unknown
r 0.1s|     1 |     0 |  1015 |     - |simplero|   0 | 749 |  77 |  77 |   0 |  0 |   0 |   0 |      --      | 2.059417e+01 |    Inf | unknown
r 0.1s|     1 |     0 |  1032 |     - |simplero|   0 | 749 |  77 |  77 |   0 |  0 |   0 |   0 |      --      | 2.040865e+01 |    Inf | unknown
r 0.1s|     1 |     0 |  1088 |     - |simplero|   0 | 760 |  77 |  77 |   0 |  0 |   0 |   0 |      --      | 1.872220e+01 |    Inf | unknown
r 0.1s|     1 |     0 |  1107 |     - |simplero|   0 | 760 |  77 |  77 |   0 |  0 |   0 |   0 |      --      | 1.852054e+01 |    Inf | unknown
r 0.1s|     1 |     0 |  1147 |     - |simplero|   0 | 771 |  77 |  77 |   0 |  0 |   0 |   0 |      --      | 1.700365e+01 |    Inf | unknown
r 0.1s|     1 |     0 |  1148 |     - |simplero|   0 | 771 |  77 |  77 |   0 |  0 |   0 |   0 |      --      | 1.700358e+01 |    Inf | unknown
r 0.1s|     1 |     0 |  1185 |     - |simplero|   0 | 782 |  77 |  77 |   0 |  0 |   0 |   0 |      --      | 1.612055e+01 |    Inf | unknown
r 0.1s|     1 |     0 |  1209 |     - |simplero|   0 | 782 |  77 |  77 |   0 |  0 |   0 |   0 |      --      | 1.604243e+01 |    Inf | unknown
r 0.1s|     1 |     0 |  1215 |     - |simplero|   0 | 782 |  77 |  77 |   0 |  0 |   0 |   0 |      --      | 1.602995e+01 |    Inf | unknown
r 0.1s|     1 |     0 |  1270 |     - |simplero|   0 | 793 |  77 |  77 |   0 |  0 |   0 |   0 |      --      | 1.414241e+01 |    Inf | unknown
 time | node  | left  |LP iter|LP it/n|mem/heur|mdpt |vars |cons |rows |cuts |sepa|confs|strbr|  dualbound   | primalbound  |  gap   | compl. 
r 0.1s|     1 |     0 |  1274 |     - |simplero|   0 | 793 |  77 |  77 |   0 |  0 |   0 |   0 |      --      | 1.413477e+01 |    Inf | unknown
r 0.1s|     1 |     0 |  1277 |     - |simplero|   0 | 793 |  77 |  77 |   0 |  0 |   0 |   0 |      --      | 1.413084e+01 |    Inf | unknown
r 0.1s|     1 |     0 |  1279 |     - |simplero|   0 | 793 |  77 |  77 |   0 |  0 |   0 |   0 |      --      | 1.413057e+01 |    Inf | unknown
r 0.1s|     1 |     0 |  1311 |     - |simplero|   0 | 804 |  77 |  77 |   0 |  0 |   0 |   0 |      --      | 1.299230e+01 |    Inf | unknown
r 0.1s|     1 |     0 |  1337 |     - |simplero|   0 | 804 |  77 |  77 |   0 |  0 |   0 |   0 |      --      | 1.265088e+01 |    Inf | unknown
r 0.1s|     1 |     0 |  1343 |     - |simplero|   0 | 804 |  77 |  77 |   0 |  0 |   0 |   0 |      --      | 1.263909e+01 |    Inf | unknown
r 0.1s|     1 |     0 |  1392 |     - |simplero|   0 | 815 |  77 |  77 |   0 |  0 |   0 |   0 |      --      | 1.194360e+01 |    Inf | unknown
r 0.1s|     1 |     0 |  1406 |     - |simplero|   0 | 815 |  77 |  77 |   0 |  0 |   0 |   0 |      --      | 1.179258e+01 |    Inf | unknown
r 0.1s|     1 |     0 |  1411 |     - |simplero|   0 | 815 |  77 |  77 |   0 |  0 |   0 |   0 |      --      | 1.178783e+01 |    Inf | unknown
r 0.1s|     1 |     0 |  1449 |     - |simplero|   0 | 826 |  77 |  77 |   0 |  0 |   0 |   0 |      --      | 1.135513e+01 |    Inf | unknown
r 0.1s|     1 |     0 |  1455 |     - |simplero|   0 | 826 |  77 |  77 |   0 |  0 |   0 |   0 |      --      | 1.134325e+01 |    Inf | unknown
r 0.1s|     1 |     0 |  1482 |     - |simplero|   0 | 837 |  77 |  77 |   0 |  0 |   0 |   0 |      --      | 1.106695e+01 |    Inf | unknown
r 0.1s|     1 |     0 |  1487 |     - |simplero|   0 | 837 |  77 |  77 |   0 |  0 |   0 |   0 |      --      | 1.105980e+01 |    Inf | unknown
r 0.1s|     1 |     0 |  1508 |     - |simplero|   0 | 848 |  77 |  77 |   0 |  0 |   0 |   0 |      --      | 1.089576e+01 |    Inf | unknown
r 0.1s|     1 |     0 |  1539 |     - |simplero|   0 | 859 |  77 |  77 |   0 |  0 |   0 |   0 |      --      | 1.051852e+01 |    Inf | unknown
 time | node  | left  |LP iter|LP it/n|mem/heur|mdpt |vars |cons |rows |cuts |sepa|confs|strbr|  dualbound   | primalbound  |  gap   | compl. 
r 0.1s|     1 |     0 |  1548 |     - |simplero|   0 | 859 |  77 |  77 |   0 |  0 |   0 |   0 |      --      | 1.047492e+01 |    Inf | unknown
r 0.1s|     1 |     0 |  1577 |     - |simplero|   0 | 870 |  77 |  77 |   0 |  0 |   0 |   0 |      --      | 1.013399e+01 |    Inf | unknown
  0.1s|     1 |     0 |  1589 |     - |  4198k |   0 | 870 |  77 |  77 |   0 |  0 |   0 |   0 |      --      | 1.013399e+01 |    Inf | unknown
r 0.1s|     1 |     0 |  1589 |     - |simplero|   0 | 870 |  77 |  77 |   0 |  0 |   0 |   0 |      --      | 1.006436e+01 |    Inf | unknown
r 0.1s|     1 |     0 |  1634 |     - |simplero|   0 | 881 |  77 |  77 |   0 |  0 |   0 |   0 |      --      | 9.700728e+00 |    Inf | unknown
r 0.1s|     1 |     0 |  1650 |     - |simplero|   0 | 881 |  77 |  77 |   0 |  0 |   0 |   0 |      --      | 9.681691e+00 |    Inf | unknown
r 0.1s|     1 |     0 |  1682 |     - |simplero|   0 | 891 |  77 |  77 |   0 |  0 |   0 |   0 |      --      | 9.460000e+00 |    Inf | unknown
r 0.1s|     1 |     0 |  1698 |     - |simplero|   0 | 891 |  77 |  77 |   0 |  0 |   0 |   0 |      --      | 9.401756e+00 |    Inf | unknown
r 0.1s|     1 |     0 |  1702 |     - |simplero|   0 | 891 |  77 |  77 |   0 |  0 |   0 |   0 |      --      | 9.400286e+00 |    Inf | unknown
r 0.1s|     1 |     0 |  1724 |     - |simplero|   0 | 901 |  77 |  77 |   0 |  0 |   0 |   0 |      --      | 9.225618e+00 |    Inf | unknown
r 0.1s|     1 |     0 |  1736 |     - |simplero|   0 | 901 |  77 |  77 |   0 |  0 |   0 |   0 |      --      | 9.202296e+00 |    Inf | unknown
r 0.1s|     1 |     0 |  1756 |     - |simplero|   0 | 912 |  77 |  77 |   0 |  0 |   0 |   0 |      --      | 9.100000e+00 |    Inf | unknown
r 0.1s|     1 |     0 |  1759 |     - |simplero|   0 | 912 |  77 |  77 |   0 |  0 |   0 |   0 |      --      | 9.099229e+00 |    Inf | unknown
r 0.1s|     1 |     0 |  1761 |     - |simplero|   0 | 912 |  77 |  77 |   0 |  0 |   0 |   0 |      --      | 9.098540e+00 |    Inf | unknown
r 0.1s|     1 |     0 |  1778 |     - |simplero|   0 | 920 |  77 |  77 |   0 |  0 |   0 |   0 |      --      | 8.973333e+00 |    Inf | unknown
 time | node  | left  |LP iter|LP it/n|mem/heur|mdpt |vars |cons |rows |cuts |sepa|confs|strbr|  dualbound   | primalbound  |  gap   | compl. 
r 0.1s|     1 |     0 |  1795 |     - |simplero|   0 | 928 |  77 |  77 |   0 |  0 |   0 |   0 |      --      | 8.907118e+00 |    Inf | unknown
r 0.1s|     1 |     0 |  1801 |     - |simplero|   0 | 928 |  77 |  77 |   0 |  0 |   0 |   0 |      --      | 8.896552e+00 |    Inf | unknown
r 0.1s|     1 |     0 |  1824 |     - |simplero|   0 | 933 |  77 |  77 |   0 |  0 |   0 |   0 |      --      | 8.862069e+00 |    Inf | unknown
r 0.1s|     1 |     0 |  1828 |     - |simplero|   0 | 933 |  77 |  77 |   0 |  0 |   0 |   0 |      --      | 8.861538e+00 |    Inf | unknown
r 0.1s|     1 |     0 |  1835 |     - |simplero|   0 | 939 |  77 |  77 |   0 |  0 |   0 |   0 |      --      | 8.860465e+00 |    Inf | unknown
r 0.1s|     1 |     0 |  1844 |     - |simplero|   0 | 942 |  77 |  77 |   0 |  0 |   0 |   0 |      --      | 8.859813e+00 |    Inf | unknown
r 0.1s|     1 |     0 |  1850 |     - |simplero|   0 | 946 |  77 |  77 |   0 |  0 |   0 |   0 |      --      | 8.857143e+00 |    Inf | unknown
  0.1s|     1 |     0 |  1854 |     - |  4574k |   0 | 947 |  77 |  77 |   0 |  0 |   0 |   0 | 8.857143e+00 | 8.857143e+00 |   0.00%| unknown
  0.1s|     1 |     0 |  1854 |     - |  4574k |   0 | 947 |  77 |  77 |   0 |  0 |   0 |   0 | 8.857143e+00 | 8.857143e+00 |   0.00%| unknown

SCIP Status        : problem is solved [optimal solution found]
Solving Time (sec) : 0.10
Solving Nodes      : 1
Primal Bound       : +8.85714285714286e+00 (50 solutions)
Dual Bound         : +8.85714285714286e+00
Gap                : 0.00 %

written transformed problem to file <results_rootrelaxation/bin012_070_000.srr.lp>
written transformed problem to file <results_rootrelaxation/bin012_070_000.srr.cip>


SCIP version 8.0.3.5 [precision: 8 byte] [memory: block] [mode: optimized] [LP solver: Soplex 6.0.1.3] [GitHash: 438792519e]
Copyright (c) 2002-2023 Zuse Institute Berlin (ZIB)

External libraries: 
  Readline 8.1         GNU library for command line editing (gnu.org/s/readline)
  Soplex 6.0.1.3       Linear Programming Solver developed at Zuse Institute Berlin (soplex.zib.de) [GitHash: 713be0fe]
  CppAD 20180000.0     Algorithmic Differentiation of C++ algorithms developed by B. Bell (github.com/coin-or/CppAD)
  ZLIB 1.2.11          General purpose compression library by J. Gailly and M. Adler (zlib.net)
  bliss 0.77           Computing Graph Automorphism Groups by T. Junttila and P. Kaski (www.tcs.hut.fi/Software/bliss/)

user parameter file <scip.set> not found - using default parameters

srr/relaxation = TRUE

read problem <instances/bin012_070_000.srr>
============

Original problem: 
original problem has 0 variables (0 bin, 0 int, 0 impl, 0 cont) and 77 constraints

presolving:
presolving (1 rounds: 1 fast, 1 medium, 1 exhaustive):
 0 deleted vars, 0 deleted constraints, 0 added constraints, 0 tightened bounds, 0 added holes, 0 changed sides, 0 changed coefficients
 0 implications, 0 cliques
presolved problem has 0 variables (0 bin, 0 int, 0 impl, 0 cont) and 77 constraints
     77 constraints of type <linear>
Presolving Time: 0.00

 time | node  | left  |LP iter|LP it/n|mem/heur|mdpt |vars |cons |rows |cuts |sepa|confs|strbr|  dualbound   | primalbound  |  gap   | compl. 
  0.0s|     1 |     0 |     1 |     - |   710k |   0 |   1 |  77 |  77 |   0 |  0 |   0 |   0 |      --      |      --      |    Inf | unknown
r 0.1s|     1 |     0 |   866 |     - |simplero|   0 | 705 |  77 |  77 |   0 |  0 |   0 |   0 |      --      | 2.734900e+01 |    Inf | unknown
r 0.1s|     1 |     0 |   894 |     - |simplero|   0 | 716 |  77 |  77 |   0 |  0 |   0 |   0 |      --      | 2.666851e+01 |    Inf | unknown
r 0.1s|     1 |     0 |   932 |     - |simplero|   0 | 727 |  77 |  77 |   0 |  0 |   0 |   0 |      --      | 2.380292e+01 |    Inf | unknown
r 0.1s|     1 |     0 |   970 |     - |simplero|   0 | 738 |  77 |  77 |   0 |  0 |   0 |   0 |      --      | 2.193833e+01 |    Inf | unknown
r 0.1s|     1 |     0 |  1015 |     - |simplero|   0 | 749 |  77 |  77 |   0 |  0 |   0 |   0 |      --      | 2.059417e+01 |    Inf | unknown
r 0.1s|     1 |     0 |  1032 |     - |simplero|   0 | 749 |  77 |  77 |   0 |  0 |   0 |   0 |      --      | 2.040865e+01 |    Inf | unknown
r 0.1s|     1 |     0 |  1088 |     - |simplero|   0 | 760 |  77 |  77 |   0 |  0 |   0 |   0 |      --      | 1.872220e+01 |    Inf | unknown
r 0.1s|     1 |     0 |  1107 |     - |simplero|   0 | 760 |  77 |  77 |   0 |  0 |   0 |   0 |      --      | 1.852054e+01 |    Inf | unknown
r 0.1s|     1 |     0 |  1147 |     - |simplero|   0 | 771 |  77 |  77 |   0 |  0 |   0 |   0 |      --      | 1.700365e+01 |    Inf | unknown
r 0.1s|     1 |     0 |  1148 |     - |simplero|   0 | 771 |  77 |  77 |   0 |  0 |   0 |   0 |      --      | 1.700358e+01 |    Inf | unknown
r 0.1s|     1 |     0 |  1185 |     - |simplero|   0 | 782 |  77 |  77 |   0 |  0 |   0 |   0 |      --      | 1.612055e+01 |    Inf | unknown
r 0.1s|     1 |     0 |  1209 |     - |simplero|   0 | 782 |  77 |  77 |   0 |  0 |   0 |   0 |      --      | 1.604243e+01 |    Inf | unknown
r 0.1s|     1 |     0 |  1215 |     - |simplero|   0 | 782 |  77 |  77 |   0 |  0 |   0 |   0 |      --      | 1.602995e+01 |    Inf | unknown
r 0.1s|     1 |     0 |  1270 |     - |simplero|   0 | 793 |  77 |  77 |   0 |  0 |   0 |   0 |      --      | 1.414241e+01 |    Inf | unknown
 time | node  | left  |LP iter|LP it/n|mem/heur|mdpt |vars |cons |rows |cuts |sepa|confs|strbr|  dualbound   | primalbound  |  gap   | compl. 
r 0.1s|     1 |     0 |  1274 |     - |simplero|   0 | 793 |  77 |  77 |   0 |  0 |   0 |   0 |      --      | 1.413477e+01 |    Inf | unknown
r 0.1s|     1 |     0 |  1277 |     - |simplero|   0 | 793 |  77 |  77 |   0 |  0 |   0 |   0 |      --      | 1.413084e+01 |    Inf | unknown
r 0.1s|     1 |     0 |  1279 |     - |simplero|   0 | 793 |  77 |  77 |   0 |  0 |   0 |   0 |      --      | 1.413057e+01 |    Inf | unknown
r 0.1s|     1 |     0 |  1311 |     - |simplero|   0 | 804 |  77 |  77 |   0 |  0 |   0 |   0 |      --      | 1.299230e+01 |    Inf | unknown
r 0.1s|     1 |     0 |  1337 |     - |simplero|   0 | 804 |  77 |  77 |   0 |  0 |   0 |   0 |      --      | 1.265088e+01 |    Inf | unknown
r 0.1s|     1 |     0 |  1343 |     - |simplero|   0 | 804 |  77 |  77 |   0 |  0 |   0 |   0 |      --      | 1.263909e+01 |    Inf | unknown
r 0.1s|     1 |     0 |  1392 |     - |simplero|   0 | 815 |  77 |  77 |   0 |  0 |   0 |   0 |      --      | 1.194360e+01 |    Inf | unknown
r 0.1s|     1 |     0 |  1406 |     - |simplero|   0 | 815 |  77 |  77 |   0 |  0 |   0 |   0 |      --      | 1.179258e+01 |    Inf | unknown
r 0.1s|     1 |     0 |  1411 |     - |simplero|   0 | 815 |  77 |  77 |   0 |  0 |   0 |   0 |      --      | 1.178783e+01 |    Inf | unknown
r 0.1s|     1 |     0 |  1449 |     - |simplero|   0 | 826 |  77 |  77 |   0 |  0 |   0 |   0 |      --      | 1.135513e+01 |    Inf | unknown
r 0.1s|     1 |     0 |  1455 |     - |simplero|   0 | 826 |  77 |  77 |   0 |  0 |   0 |   0 |      --      | 1.134325e+01 |    Inf | unknown
r 0.1s|     1 |     0 |  1482 |     - |simplero|   0 | 837 |  77 |  77 |   0 |  0 |   0 |   0 |      --      | 1.106695e+01 |    Inf | unknown
r 0.1s|     1 |     0 |  1487 |     - |simplero|   0 | 837 |  77 |  77 |   0 |  0 |   0 |   0 |      --      | 1.105980e+01 |    Inf | unknown
r 0.1s|     1 |     0 |  1508 |     - |simplero|   0 | 848 |  77 |  77 |   0 |  0 |   0 |   0 |      --      | 1.089576e+01 |    Inf | unknown
r 0.1s|     1 |     0 |  1539 |     - |simplero|   0 | 859 |  77 |  77 |   0 |  0 |   0 |   0 |      --      | 1.051852e+01 |    Inf | unknown
 time | node  | left  |LP iter|LP it/n|mem/heur|mdpt |vars |cons |rows |cuts |sepa|confs|strbr|  dualbound   | primalbound  |  gap   | compl. 
r 0.1s|     1 |     0 |  1548 |     - |simplero|   0 | 859 |  77 |  77 |   0 |  0 |   0 |   0 |      --      | 1.047492e+01 |    Inf | unknown
r 0.1s|     1 |     0 |  1577 |     - |simplero|   0 | 870 |  77 |  77 |   0 |  0 |   0 |   0 |      --      | 1.013399e+01 |    Inf | unknown
  0.1s|     1 |     0 |  1589 |     - |  4198k |   0 | 870 |  77 |  77 |   0 |  0 |   0 |   0 |      --      | 1.013399e+01 |    Inf | unknown
r 0.1s|     1 |     0 |  1589 |     - |simplero|   0 | 870 |  77 |  77 |   0 |  0 |   0 |   0 |      --      | 1.006436e+01 |    Inf | unknown
r 0.1s|     1 |     0 |  1634 |     - |simplero|   0 | 881 |  77 |  77 |   0 |  0 |   0 |   0 |      --      | 9.700728e+00 |    Inf | unknown
r 0.1s|     1 |     0 |  1650 |     - |simplero|   0 | 881 |  77 |  77 |   0 |  0 |   0 |   0 |      --      | 9.681691e+00 |    Inf | unknown
r 0.1s|     1 |     0 |  1682 |     - |simplero|   0 | 891 |  77 |  77 |   0 |  0 |   0 |   0 |      --      | 9.460000e+00 |    Inf | unknown
r 0.1s|     1 |     0 |  1698 |     - |simplero|   0 | 891 |  77 |  77 |   0 |  0 |   0 |   0 |      --      | 9.401756e+00 |    Inf | unknown
r 0.1s|     1 |     0 |  1702 |     - |simplero|   0 | 891 |  77 |  77 |   0 |  0 |   0 |   0 |      --      | 9.400286e+00 |    Inf | unknown
r 0.1s|     1 |     0 |  1724 |     - |simplero|   0 | 901 |  77 |  77 |   0 |  0 |   0 |   0 |      --      | 9.225618e+00 |    Inf | unknown
r 0.1s|     1 |     0 |  1736 |     - |simplero|   0 | 901 |  77 |  77 |   0 |  0 |   0 |   0 |      --      | 9.202296e+00 |    Inf | unknown
r 0.1s|     1 |     0 |  1756 |     - |simplero|   0 | 912 |  77 |  77 |   0 |  0 |   0 |   0 |      --      | 9.100000e+00 |    Inf | unknown
r 0.1s|     1 |     0 |  1759 |     - |simplero|   0 | 912 |  77 |  77 |   0 |  0 |   0 |   0 |      --      | 9.099229e+00 |    Inf | unknown
r 0.1s|     1 |     0 |  1761 |     - |simplero|   0 | 912 |  77 |  77 |   0 |  0 |   0 |   0 |      --      | 9.098540e+00 |    Inf | unknown
r 0.1s|     1 |     0 |  1778 |     - |simplero|   0 | 920 |  77 |  77 |   0 |  0 |   0 |   0 |      --      | 8.973333e+00 |    Inf | unknown
 time | node  | left  |LP iter|LP it/n|mem/heur|mdpt |vars |cons |rows |cuts |sepa|confs|strbr|  dualbound   | primalbound  |  gap   | compl. 
r 0.1s|     1 |     0 |  1795 |     - |simplero|   0 | 928 |  77 |  77 |   0 |  0 |   0 |   0 |      --      | 8.907118e+00 |    Inf | unknown
r 0.1s|     1 |     0 |  1801 |     - |simplero|   0 | 928 |  77 |  77 |   0 |  0 |   0 |   0 |      --      | 8.896552e+00 |    Inf | unknown
r 0.1s|     1 |     0 |  1824 |     - |simplero|   0 | 933 |  77 |  77 |   0 |  0 |   0 |   0 |      --      | 8.862069e+00 |    Inf | unknown
r 0.1s|     1 |     0 |  1828 |     - |simplero|   0 | 933 |  77 |  77 |   0 |  0 |   0 |   0 |      --      | 8.861538e+00 |    Inf | unknown
r 0.1s|     1 |     0 |  1835 |     - |simplero|   0 | 939 |  77 |  77 |   0 |  0 |   0 |   0 |      --      | 8.860465e+00 |    Inf | unknown
r 0.1s|     1 |     0 |  1844 |     - |simplero|   0 | 942 |  77 |  77 |   0 |  0 |   0 |   0 |      --      | 8.859813e+00 |    Inf | unknown
r 0.1s|     1 |     0 |  1850 |     - |simplero|   0 | 946 |  77 |  77 |   0 |  0 |   0 |   0 |      --      | 8.857143e+00 |    Inf | unknown
  0.1s|     1 |     0 |  1854 |     - |  4574k |   0 | 947 |  77 |  77 |   0 |  0 |   0 |   0 | 8.857143e+00 | 8.857143e+00 |   0.00%| unknown
  0.1s|     1 |     0 |  1854 |     - |  4574k |   0 | 947 |  77 |  77 |   0 |  0 |   0 |   0 | 8.857143e+00 | 8.857143e+00 |   0.00%| unknown

SCIP Status        : problem is solved [optimal solution found]
Solving Time (sec) : 0.12
Solving Nodes      : 1
Primal Bound       : +8.85714285714286e+00 (50 solutions)
Dual Bound         : +8.85714285714286e+00
Gap                : 0.00 %

written transformed problem to file <results_rootrelaxation/bin012_070_000.srr.lp>
written transformed problem to file <results_rootrelaxation/bin012_070_000.srr.cip>

written solution information to file <results_rootrelaxation/bin012_070_000.srr.sol>



